p cnf 430 1488
-191 56 0
-191 52 0
-191 -12 0
-191 7 0
-191 99 0
191 -56 -52 12 -7 -99 0
-192 131 0
-192 100 0
-192 -28 0
-192 91 0
-192 -124 0
192 -131 -100 28 -91 124 0
-193 -4 0
-193 106 0
-193 -182 0
-193 -113 0
-193 -64 0
193 4 -106 182 113 64 0
-194 161 0
-194 173 0
-194 -53 0
-194 22 0
-194 178 0
194 -161 -173 53 -22 -178 0
-195 56 0
-195 -151 0
-195 127 0
-195 35 0
-195 -183 0
195 -56 151 -127 -35 183 0
191 192 193 194 195 0
-196 39 0
-196 54 0
-196 -24 0
-196 -178 0
-196 -49 0
196 -39 -54 24 178 49 0
-197 153 0
-197 26 0
-197 -97 0
-197 -81 0
-197 -45 0
197 -153 -26 97 81 45 0
-198 92 0
-198 120 0
-198 -85 0
-198 33 0
-198 -150 0
198 -92 -120 85 -33 150 0
-199 -109 0
-199 131 0
-199 71 0
-199 -22 0
-199 -62 0
199 109 -131 -71 22 62 0
-200 -46 0
-200 -148 0
-200 92 0
-200 169 0
-200 -118 0
200 46 148 -92 -169 118 0
196 197 198 199 200 0
-201 -43 0
-201 112 0
-201 76 0
-201 -82 0
-201 -149 0
201 43 -112 -76 82 149 0
-202 189 0
-202 -14 0
-202 65 0
-202 57 0
-202 73 0
202 -189 14 -65 -57 -73 0
-203 -2 0
-203 -186 0
-203 153 0
-203 -7 0
-203 -145 0
203 2 186 -153 7 145 0
-204 -161 0
-204 16 0
-204 122 0
-204 165 0
-204 -160 0
204 161 -16 -122 -165 160 0
-205 85 0
-205 74 0
-205 -91 0
-205 122 0
-205 -143 0
205 -85 -74 91 -122 143 0
201 202 203 204 205 0
-206 94 0
-206 168 0
-206 100 0
-206 -169 0
-206 -118 0
206 -94 -168 -100 169 118 0
-207 -172 0
-207 -80 0
-207 -30 0
-207 15 0
-207 -5 0
207 172 80 30 -15 5 0
-208 -116 0
-208 -13 0
-208 -139 0
-208 -143 0
-208 -6 0
208 116 13 139 143 6 0
-209 98 0
-209 -186 0
-209 -7 0
-209 159 0
-209 -182 0
209 -98 186 7 -159 182 0
-210 -54 0
-210 -157 0
-210 -94 0
-210 -124 0
-210 29 0
210 54 157 94 124 -29 0
206 207 208 209 210 0
-211 13 0
-211 -33 0
-211 154 0
-211 188 0
-211 -55 0
211 -13 33 -154 -188 55 0
-212 -159 0
-212 25 0
-212 90 0
-212 165 0
-212 22 0
212 159 -25 -90 -165 -22 0
-213 -86 0
-213 -38 0
-213 -167 0
-213 180 0
-213 28 0
213 86 38 167 -180 -28 0
-214 63 0
-214 125 0
-214 -19 0
-214 -134 0
-214 62 0
214 -63 -125 19 134 -62 0
-215 -11 0
-215 162 0
-215 10 0
-215 178 0
-215 -65 0
215 11 -162 -10 -178 65 0
211 212 213 214 215 0
-216 72 0
-216 31 0
-216 42 0
-216 -9 0
-216 -3 0
216 -72 -31 -42 9 3 0
-217 188 0
-217 174 0
-217 -58 0
-217 20 0
-217 -96 0
217 -188 -174 58 -20 96 0
-218 11 0
-218 8 0
-218 170 0
-218 9 0
-218 72 0
218 -11 -8 -170 -9 -72 0
-219 57 0
-219 100 0
-219 124 0
-219 -18 0
-219 14 0
219 -57 -100 -124 18 -14 0
-220 165 0
-220 123 0
-220 159 0
-220 -174 0
-220 161 0
220 -165 -123 -159 174 -161 0
216 217 218 219 220 0
-221 -131 0
-221 -98 0
-221 25 0
-221 -78 0
-221 -55 0
221 131 98 -25 78 55 0
-222 159 0
-222 -15 0
-222 72 0
-222 84 0
-222 -55 0
222 -159 15 -72 -84 55 0
-223 -7 0
-223 65 0
-223 -87 0
-223 -112 0
-223 115 0
223 7 -65 87 112 -115 0
-224 3 0
-224 -162 0
-224 177 0
-224 116 0
-224 -46 0
224 -3 162 -177 -116 46 0
-225 -45 0
-225 -61 0
-225 -53 0
-225 39 0
-225 -74 0
225 45 61 53 -39 74 0
221 222 223 224 225 0
-226 -154 0
-226 -151 0
-226 131 0
-226 126 0
-226 -70 0
226 154 151 -131 -126 70 0
-227 -110 0
-227 107 0
-227 -130 0
-227 118 0
-227 120 0
227 110 -107 130 -118 -120 0
-228 -110 0
-228 -142 0
-228 -25 0
-228 -36 0
-228 179 0
228 110 142 25 36 -179 0
-229 47 0
-229 178 0
-229 -148 0
-229 -84 0
-229 -185 0
229 -47 -178 148 84 185 0
-230 -82 0
-230 9 0
-230 -70 0
-230 144 0
-230 -128 0
230 82 -9 70 -144 128 0
226 227 228 229 230 0
-231 18 0
-231 70 0
-231 -33 0
-231 117 0
-231 58 0
231 -18 -70 33 -117 -58 0
-232 -12 0
-232 -109 0
-232 175 0
-232 168 0
-232 -159 0
232 12 109 -175 -168 159 0
-233 90 0
-233 -17 0
-233 66 0
-233 160 0
-233 142 0
233 -90 17 -66 -160 -142 0
-234 -89 0
-234 157 0
-234 135 0
-234 -38 0
-234 -167 0
234 89 -157 -135 38 167 0
-235 -17 0
-235 21 0
-235 -190 0
-235 -113 0
-235 71 0
235 17 -21 190 113 -71 0
231 232 233 234 235 0
-236 -18 0
-236 -150 0
-236 38 0
-236 -82 0
-236 -74 0
236 18 150 -38 82 74 0
-237 -4 0
-237 182 0
-237 166 0
-237 -113 0
-237 152 0
237 4 -182 -166 113 -152 0
-238 -171 0
-238 132 0
-238 29 0
-238 7 0
-238 150 0
238 171 -132 -29 -7 -150 0
-239 162 0
-239 33 0
-239 109 0
-239 -182 0
-239 135 0
239 -162 -33 -109 182 -135 0
-240 -8 0
-240 -4 0
-240 -171 0
-240 114 0
-240 128 0
240 8 4 171 -114 -128 0
236 237 238 239 240 0
-241 -120 0
-241 23 0
-241 -35 0
-241 132 0
-241 -163 0
241 120 -23 35 -132 163 0
-242 -167 0
-242 -156 0
-242 -39 0
-242 -176 0
-242 146 0
242 167 156 39 176 -146 0
-243 28 0
-243 -171 0
-243 55 0
-243 -88 0
-243 -168 0
243 -28 171 -55 88 168 0
-244 -172 0
-244 -109 0
-244 -57 0
-244 -110 0
-244 -136 0
244 172 109 57 110 136 0
-245 -104 0
-245 -68 0
-245 85 0
-245 165 0
-245 -174 0
245 104 68 -85 -165 174 0
241 242 243 244 245 0
-246 30 0
-246 -75 0
-246 -6 0
-246 -27 0
-246 131 0
246 -30 75 6 27 -131 0
-247 80 0
-247 104 0
-247 -71 0
-247 -18 0
-247 -121 0
247 -80 -104 71 18 121 0
-248 142 0
-248 85 0
-248 177 0
-248 -182 0
-248 -157 0
248 -142 -85 -177 182 157 0
-249 -30 0
-249 152 0
-249 101 0
-249 -84 0
-249 172 0
249 30 -152 -101 84 -172 0
-250 62 0
-250 -126 0
-250 7 0
-250 149 0
-250 -113 0
250 -62 126 -7 -149 113 0
246 247 248 249 250 0
-251 -149 0
-251 -58 0
-251 57 0
-251 -79 0
-251 36 0
251 149 58 -57 79 -36 0
-252 -58 0
-252 94 0
-252 -106 0
-252 123 0
-252 45 0
252 58 -94 106 -123 -45 0
-253 135 0
-253 -115 0
-253 -89 0
-253 -170 0
-253 -93 0
253 -135 115 89 170 93 0
-254 -77 0
-254 -36 0
-254 -2 0
-254 -124 0
-254 -63 0
254 77 36 2 124 63 0
-255 175 0
-255 -47 0
-255 -80 0
-255 -107 0
-255 188 0
255 -175 47 80 107 -188 0
251 252 253 254 255 0
-256 185 0
-256 -156 0
-256 -181 0
-256 131 0
-256 -161 0
256 -185 156 181 -131 161 0
-257 -71 0
-257 -154 0
-257 51 0
-257 180 0
-257 114 0
257 71 154 -51 -180 -114 0
-258 143 0
-258 58 0
-258 -30 0
-258 181 0
-258 -140 0
258 -143 -58 30 -181 140 0
-259 -37 0
-259 -79 0
-259 40 0
-259 -3 0
-259 -87 0
259 37 79 -40 3 87 0
-260 -78 0
-260 -64 0
-260 3 0
-260 114 0
-260 -98 0
260 78 64 -3 -114 98 0
256 257 258 259 260 0
-261 -28 0
-261 4 0
-261 104 0
-261 33 0
-261 117 0
261 28 -4 -104 -33 -117 0
-262 -86 0
-262 -126 0
-262 -92 0
-262 -49 0
-262 96 0
262 86 126 92 49 -96 0
-263 146 0
-263 47 0
-263 -170 0
-263 -58 0
-263 56 0
263 -146 -47 170 58 -56 0
-264 126 0
-264 -40 0
-264 91 0
-264 23 0
-264 59 0
264 -126 40 -91 -23 -59 0
-265 -98 0
-265 -164 0
-265 83 0
-265 -38 0
-265 -185 0
265 98 164 -83 38 185 0
261 262 263 264 265 0
-266 157 0
-266 137 0
-266 46 0
-266 -21 0
-266 -57 0
266 -157 -137 -46 21 57 0
-267 -138 0
-267 -47 0
-267 -170 0
-267 17 0
-267 130 0
267 138 47 170 -17 -130 0
-268 159 0
-268 5 0
-268 157 0
-268 -35 0
-268 -66 0
268 -159 -5 -157 35 66 0
-269 -134 0
-269 94 0
-269 -11 0
-269 -16 0
-269 -2 0
269 134 -94 11 16 2 0
-270 120 0
-270 149 0
-270 141 0
-270 -142 0
-270 -107 0
270 -120 -149 -141 142 107 0
266 267 268 269 270 0
-271 -104 0
-271 -155 0
-271 76 0
-271 -93 0
-271 -33 0
271 104 155 -76 93 33 0
-272 -38 0
-272 -180 0
-272 -112 0
-272 -92 0
-272 -169 0
272 38 180 112 92 169 0
-273 -1 0
-273 147 0
-273 178 0
-273 182 0
-273 61 0
273 1 -147 -178 -182 -61 0
-274 78 0
-274 -157 0
-274 68 0
-274 -155 0
-274 -101 0
274 -78 157 -68 155 101 0
-275 -86 0
-275 58 0
-275 -108 0
-275 -124 0
-275 -26 0
275 86 -58 108 124 26 0
271 272 273 274 275 0
-276 -59 0
-276 -130 0
-276 135 0
-276 185 0
-276 -163 0
276 59 130 -135 -185 163 0
-277 -148 0
-277 -77 0
-277 -126 0
-277 108 0
-277 -26 0
277 148 77 126 -108 26 0
-278 94 0
-278 -75 0
-278 -89 0
-278 35 0
-278 67 0
278 -94 75 89 -35 -67 0
-279 78 0
-279 60 0
-279 -126 0
-279 48 0
-279 65 0
279 -78 -60 126 -48 -65 0
-280 137 0
-280 -42 0
-280 -18 0
-280 -28 0
-280 -97 0
280 -137 42 18 28 97 0
276 277 278 279 280 0
-281 -105 0
-281 59 0
-281 -92 0
-281 -151 0
-281 -1 0
281 105 -59 92 151 1 0
-282 -22 0
-282 -183 0
-282 70 0
-282 -85 0
-282 -167 0
282 22 183 -70 85 167 0
-283 -53 0
-283 50 0
-283 33 0
-283 -44 0
-283 43 0
283 53 -50 -33 44 -43 0
-284 -110 0
-284 -116 0
-284 -71 0
-284 -96 0
-284 -59 0
284 110 116 71 96 59 0
-285 134 0
-285 150 0
-285 -188 0
-285 58 0
-285 107 0
285 -134 -150 188 -58 -107 0
281 282 283 284 285 0
-286 -169 0
-286 99 0
-286 185 0
-286 -126 0
-286 -2 0
286 169 -99 -185 126 2 0
-287 -78 0
-287 -59 0
-287 -95 0
-287 -80 0
-287 -188 0
287 78 59 95 80 188 0
-288 -46 0
-288 -158 0
-288 -8 0
-288 150 0
-288 110 0
288 46 158 8 -150 -110 0
-289 69 0
-289 -79 0
-289 155 0
-289 20 0
-289 90 0
289 -69 79 -155 -20 -90 0
-290 -101 0
-290 178 0
-290 100 0
-290 -47 0
-290 -71 0
290 101 -178 -100 47 71 0
286 287 288 289 290 0
-291 -84 0
-291 -170 0
-291 49 0
-291 -126 0
-291 -177 0
291 84 170 -49 126 177 0
-292 53 0
-292 -129 0
-292 8 0
-292 98 0
-292 -180 0
292 -53 129 -8 -98 180 0
-293 -27 0
-293 -76 0
-293 -135 0
-293 -11 0
-293 -145 0
293 27 76 135 11 145 0
-294 171 0
-294 78 0
-294 -17 0
-294 -126 0
-294 21 0
294 -171 -78 17 126 -21 0
-295 -75 0
-295 -170 0
-295 99 0
-295 -66 0
-295 74 0
295 75 170 -99 66 -74 0
291 292 293 294 295 0
-296 163 0
-296 -175 0
-296 117 0
-296 36 0
-296 -130 0
296 -163 175 -117 -36 130 0
-297 -124 0
-297 -121 0
-297 -183 0
-297 -156 0
-297 85 0
297 124 121 183 156 -85 0
-298 74 0
-298 -143 0
-298 178 0
-298 -30 0
-298 108 0
298 -74 143 -178 30 -108 0
-299 135 0
-299 78 0
-299 129 0
-299 107 0
-299 -24 0
299 -135 -78 -129 -107 24 0
-300 38 0
-300 -180 0
-300 -88 0
-300 -143 0
-300 -163 0
300 -38 180 88 143 163 0
296 297 298 299 300 0
-301 -74 0
-301 48 0
-301 -106 0
-301 111 0
-301 -66 0
301 74 -48 106 -111 66 0
-302 72 0
-302 91 0
-302 68 0
-302 -67 0
-302 -35 0
302 -72 -91 -68 67 35 0
-303 -155 0
-303 -151 0
-303 -74 0
-303 58 0
-303 -179 0
303 155 151 74 -58 179 0
-304 -127 0
-304 -135 0
-304 34 0
-304 171 0
-304 32 0
304 127 135 -34 -171 -32 0
-305 -101 0
-305 173 0
-305 -176 0
-305 112 0
-305 -58 0
305 101 -173 176 -112 58 0
301 302 303 304 305 0
-306 -176 0
-306 -100 0
-306 141 0
-306 -184 0
-306 181 0
306 176 100 -141 184 -181 0
-307 24 0
-307 -87 0
-307 -38 0
-307 14 0
-307 -91 0
307 -24 87 38 -14 91 0
-308 -77 0
-308 36 0
-308 25 0
-308 1 0
-308 -58 0
308 77 -36 -25 -1 58 0
-309 -87 0
-309 -167 0
-309 -81 0
-309 179 0
-309 112 0
309 87 167 81 -179 -112 0
-310 138 0
-310 162 0
-310 -176 0
-310 66 0
-310 -36 0
310 -138 -162 176 -66 36 0
306 307 308 309 310 0
-311 -27 0
-311 -177 0
-311 74 0
-311 -46 0
-311 -41 0
311 27 177 -74 46 41 0
-312 -146 0
-312 17 0
-312 -157 0
-312 71 0
-312 7 0
312 146 -17 157 -71 -7 0
-313 -47 0
-313 30 0
-313 -130 0
-313 -4 0
-313 8 0
313 47 -30 130 4 -8 0
-314 49 0
-314 157 0
-314 -21 0
-314 183 0
-314 54 0
314 -49 -157 21 -183 -54 0
-315 44 0
-315 -74 0
-315 13 0
-315 -182 0
-315 -136 0
315 -44 74 -13 182 136 0
311 312 313 314 315 0
-316 -21 0
-316 -5 0
-316 -129 0
-316 -11 0
-316 128 0
316 21 5 129 11 -128 0
-317 187 0
-317 78 0
-317 87 0
-317 174 0
-317 161 0
317 -187 -78 -87 -174 -161 0
-318 -10 0
-318 153 0
-318 79 0
-318 -47 0
-318 -146 0
318 10 -153 -79 47 146 0
-319 -147 0
-319 106 0
-319 64 0
-319 -107 0
-319 -26 0
319 147 -106 -64 107 26 0
-320 11 0
-320 -80 0
-320 13 0
-320 -186 0
-320 -188 0
320 -11 80 -13 186 188 0
316 317 318 319 320 0
-321 146 0
-321 177 0
-321 -83 0
-321 -127 0
-321 166 0
321 -146 -177 83 127 -166 0
-322 73 0
-322 -66 0
-322 163 0
-322 -112 0
-322 -95 0
322 -73 66 -163 112 95 0
-323 103 0
-323 184 0
-323 -155 0
-323 -17 0
-323 -177 0
323 -103 -184 155 17 177 0
-324 103 0
-324 172 0
-324 -161 0
-324 178 0
-324 -77 0
324 -103 -172 161 -178 77 0
-325 117 0
-325 -109 0
-325 43 0
-325 -186 0
-325 51 0
325 -117 109 -43 186 -51 0
321 322 323 324 325 0
-326 -70 0
-326 -181 0
-326 175 0
-326 -10 0
-326 162 0
326 70 181 -175 10 -162 0
-327 -183 0
-327 171 0
-327 -67 0
-327 -188 0
-327 -182 0
327 183 -171 67 188 182 0
-328 -105 0
-328 -46 0
-328 -149 0
-328 -125 0
-328 162 0
328 105 46 149 125 -162 0
-329 -185 0
-329 97 0
-329 115 0
-329 16 0
-329 -91 0
329 185 -97 -115 -16 91 0
-330 32 0
-330 -46 0
-330 -187 0
-330 -183 0
-330 -172 0
330 -32 46 187 183 172 0
326 327 328 329 330 0
-331 -162 0
-331 -92 0
-331 -73 0
-331 147 0
-331 -172 0
331 162 92 73 -147 172 0
-332 150 0
-332 43 0
-332 28 0
-332 -33 0
-332 156 0
332 -150 -43 -28 33 -156 0
-333 -35 0
-333 -108 0
-333 139 0
-333 5 0
-333 -168 0
333 35 108 -139 -5 168 0
-334 -66 0
-334 -147 0
-334 73 0
-334 -35 0
-334 124 0
334 66 147 -73 35 -124 0
-335 183 0
-335 24 0
-335 9 0
-335 19 0
-335 37 0
335 -183 -24 -9 -19 -37 0
331 332 333 334 335 0
-336 31 0
-336 -133 0
-336 136 0
-336 137 0
-336 172 0
336 -31 133 -136 -137 -172 0
-337 67 0
-337 3 0
-337 51 0
-337 108 0
-337 18 0
337 -67 -3 -51 -108 -18 0
-338 -13 0
-338 -185 0
-338 39 0
-338 47 0
-338 50 0
338 13 185 -39 -47 -50 0
-339 -125 0
-339 38 0
-339 -93 0
-339 -102 0
-339 159 0
339 125 -38 93 102 -159 0
-340 32 0
-340 3 0
-340 106 0
-340 111 0
-340 -121 0
340 -32 -3 -106 -111 121 0
336 337 338 339 340 0
-341 -148 0
-341 -184 0
-341 -170 0
-341 54 0
-341 78 0
341 148 184 170 -54 -78 0
-342 -171 0
-342 80 0
-342 7 0
-342 119 0
-342 98 0
342 171 -80 -7 -119 -98 0
-343 -44 0
-343 93 0
-343 -180 0
-343 -156 0
-343 40 0
343 44 -93 180 156 -40 0
-344 -36 0
-344 15 0
-344 -167 0
-344 79 0
-344 48 0
344 36 -15 167 -79 -48 0
-345 126 0
-345 -38 0
-345 -58 0
-345 -102 0
-345 -60 0
345 -126 38 58 102 60 0
341 342 343 344 345 0
-346 -95 0
-346 186 0
-346 -172 0
-346 39 0
-346 144 0
346 95 -186 172 -39 -144 0
-347 106 0
-347 19 0
-347 87 0
-347 -6 0
-347 43 0
347 -106 -19 -87 6 -43 0
-348 31 0
-348 149 0
-348 187 0
-348 181 0
-348 184 0
348 -31 -149 -187 -181 -184 0
-349 171 0
-349 -68 0
-349 -52 0
-349 103 0
-349 -109 0
349 -171 68 52 -103 109 0
-350 103 0
-350 163 0
-350 53 0
-350 -126 0
-350 -160 0
350 -103 -163 -53 126 160 0
346 347 348 349 350 0
-351 -81 0
-351 95 0
-351 -31 0
-351 -128 0
-351 -77 0
351 81 -95 31 128 77 0
-352 143 0
-352 -20 0
-352 54 0
-352 117 0
-352 -112 0
352 -143 20 -54 -117 112 0
-353 161 0
-353 -77 0
-353 -167 0
-353 -56 0
-353 -171 0
353 -161 77 167 56 171 0
-354 -57 0
-354 120 0
-354 -23 0
-354 161 0
-354 149 0
354 57 -120 23 -161 -149 0
-355 133 0
-355 115 0
-355 113 0
-355 -180 0
-355 131 0
355 -133 -115 -113 180 -131 0
351 352 353 354 355 0
-356 -175 0
-356 32 0
-356 -132 0
-356 8 0
-356 -59 0
356 175 -32 132 -8 59 0
-357 3 0
-357 14 0
-357 -70 0
-357 -53 0
-357 -88 0
357 -3 -14 70 53 88 0
-358 -187 0
-358 97 0
-358 104 0
-358 -180 0
-358 76 0
358 187 -97 -104 180 -76 0
-359 63 0
-359 -46 0
-359 167 0
-359 118 0
-359 151 0
359 -63 46 -167 -118 -151 0
-360 121 0
-360 -100 0
-360 -44 0
-360 -21 0
-360 -50 0
360 -121 100 44 21 50 0
356 357 358 359 360 0
-361 -49 0
-361 -87 0
-361 -93 0
-361 -33 0
-361 167 0
361 49 87 93 33 -167 0
-362 164 0
-362 -181 0
-362 -16 0
-362 -107 0
-362 20 0
362 -164 181 16 107 -20 0
-363 -168 0
-363 85 0
-363 165 0
-363 134 0
-363 141 0
363 168 -85 -165 -134 -141 0
-364 -141 0
-364 -101 0
-364 21 0
-364 60 0
-364 153 0
364 141 101 -21 -60 -153 0
-365 121 0
-365 42 0
-365 -130 0
-365 -114 0
-365 -107 0
365 -121 -42 130 114 107 0
361 362 363 364 365 0
-366 -166 0
-366 83 0
-366 -124 0
-366 69 0
-366 -63 0
366 166 -83 124 -69 63 0
-367 -77 0
-367 -163 0
-367 73 0
-367 -153 0
-367 -159 0
367 77 163 -73 153 159 0
-368 -58 0
-368 114 0
-368 26 0
-368 178 0
-368 46 0
368 58 -114 -26 -178 -46 0
-369 57 0
-369 164 0
-369 -44 0
-369 185 0
-369 11 0
369 -57 -164 44 -185 -11 0
-370 95 0
-370 1 0
-370 -21 0
-370 -24 0
-370 -72 0
370 -95 -1 21 24 72 0
366 367 368 369 370 0
-371 -11 0
-371 173 0
-371 -170 0
-371 -9 0
-371 1 0
371 11 -173 170 9 -1 0
-372 77 0
-372 -78 0
-372 45 0
-372 -163 0
-372 129 0
372 -77 78 -45 163 -129 0
-373 -61 0
-373 -125 0
-373 110 0
-373 -74 0
-373 -100 0
373 61 125 -110 74 100 0
-374 105 0
-374 -138 0
-374 185 0
-374 175 0
-374 -125 0
374 -105 138 -185 -175 125 0
-375 -180 0
-375 182 0
-375 -154 0
-375 17 0
-375 -129 0
375 180 -182 154 -17 129 0
371 372 373 374 375 0
-376 8 0
-376 -154 0
-376 -25 0
-376 -70 0
-376 119 0
376 -8 154 25 70 -119 0
-377 -132 0
-377 178 0
-377 54 0
-377 -153 0
-377 -37 0
377 132 -178 -54 153 37 0
-378 -12 0
-378 -103 0
-378 -126 0
-378 -26 0
-378 142 0
378 12 103 126 26 -142 0
-379 131 0
-379 -75 0
-379 -41 0
-379 -81 0
-379 -67 0
379 -131 75 41 81 67 0
-380 186 0
-380 -169 0
-380 -12 0
-380 69 0
-380 -106 0
380 -186 169 12 -69 106 0
376 377 378 379 380 0
-381 -68 0
-381 112 0
-381 78 0
-381 -148 0
-381 -7 0
381 68 -112 -78 148 7 0
-382 86 0
-382 119 0
-382 -51 0
-382 154 0
-382 127 0
382 -86 -119 51 -154 -127 0
-383 138 0
-383 -28 0
-383 -57 0
-383 13 0
-383 -128 0
383 -138 28 57 -13 128 0
-384 -90 0
-384 -164 0
-384 173 0
-384 62 0
-384 166 0
384 90 164 -173 -62 -166 0
-385 143 0
-385 -81 0
-385 -1 0
-385 47 0
-385 -68 0
385 -143 81 1 -47 68 0
381 382 383 384 385 0
-386 131 0
-386 5 0
-386 118 0
-386 88 0
-386 -36 0
386 -131 -5 -118 -88 36 0
-387 89 0
-387 62 0
-387 65 0
-387 -168 0
-387 119 0
387 -89 -62 -65 168 -119 0
-388 125 0
-388 147 0
-388 61 0
-388 183 0
-388 76 0
388 -125 -147 -61 -183 -76 0
-389 -148 0
-389 -134 0
-389 -54 0
-389 -38 0
-389 81 0
389 148 134 54 38 -81 0
-390 21 0
-390 -62 0
-390 150 0
-390 31 0
-390 15 0
390 -21 62 -150 -31 -15 0
386 387 388 389 390 0
-391 -71 0
-391 74 0
-391 -30 0
-391 -144 0
-391 -181 0
391 71 -74 30 144 181 0
-392 -179 0
-392 24 0
-392 102 0
-392 111 0
-392 97 0
392 179 -24 -102 -111 -97 0
-393 -138 0
-393 -3 0
-393 100 0
-393 146 0
-393 128 0
393 138 3 -100 -146 -128 0
-394 110 0
-394 189 0
-394 -6 0
-394 -171 0
-394 -17 0
394 -110 -189 6 171 17 0
-395 52 0
-395 67 0
-395 -177 0
-395 -9 0
-395 -54 0
395 -52 -67 177 9 54 0
391 392 393 394 395 0
-396 172 0
-396 -109 0
-396 154 0
-396 -24 0
-396 149 0
396 -172 109 -154 24 -149 0
-397 86 0
-397 2 0
-397 76 0
-397 -21 0
-397 79 0
397 -86 -2 -76 21 -79 0
-398 -129 0
-398 31 0
-398 -107 0
-398 29 0
-398 -35 0
398 129 -31 107 -29 35 0
-399 105 0
-399 58 0
-399 130 0
-399 -164 0
-399 69 0
399 -105 -58 -130 164 -69 0
-400 51 0
-400 -7 0
-400 100 0
-400 165 0
-400 -120 0
400 -51 7 -100 -165 120 0
396 397 398 399 400 0
-401 -170 0
-401 167 0
-401 -137 0
-401 -100 0
-401 -63 0
401 170 -167 137 100 63 0
-402 64 0
-402 -184 0
-402 82 0
-402 131 0
-402 170 0
402 -64 184 -82 -131 -170 0
-403 -34 0
-403 -67 0
-403 114 0
-403 -8 0
-403 22 0
403 34 67 -114 8 -22 0
-404 129 0
-404 95 0
-404 155 0
-404 97 0
-404 -150 0
404 -129 -95 -155 -97 150 0
-405 -158 0
-405 20 0
-405 -112 0
-405 85 0
-405 109 0
405 158 -20 112 -85 -109 0
401 402 403 404 405 0
-406 -150 0
-406 147 0
-406 -151 0
-406 189 0
-406 64 0
406 150 -147 151 -189 -64 0
-407 41 0
-407 48 0
-407 -60 0
-407 76 0
-407 94 0
407 -41 -48 60 -76 -94 0
-408 -114 0
-408 24 0
-408 -169 0
-408 18 0
-408 90 0
408 114 -24 169 -18 -90 0
-409 88 0
-409 -36 0
-409 -5 0
-409 38 0
-409 118 0
409 -88 36 5 -38 -118 0
-410 -20 0
-410 -39 0
-410 88 0
-410 -70 0
-410 -124 0
410 20 39 -88 70 124 0
406 407 408 409 410 0
-411 92 0
-411 -119 0
-411 -47 0
-411 -120 0
-411 -69 0
411 -92 119 47 120 69 0
-412 -78 0
-412 76 0
-412 58 0
-412 -41 0
-412 -75 0
412 78 -76 -58 41 75 0
-413 -9 0
-413 -67 0
-413 29 0
-413 -139 0
-413 39 0
413 9 67 -29 139 -39 0
-414 -39 0
-414 -44 0
-414 -127 0
-414 -103 0
-414 133 0
414 39 44 127 103 -133 0
-415 158 0
-415 -141 0
-415 -9 0
-415 -54 0
-415 164 0
415 -158 141 9 54 -164 0
411 412 413 414 415 0
-416 -163 0
-416 141 0
-416 39 0
-416 66 0
-416 -33 0
416 163 -141 -39 -66 33 0
-417 14 0
-417 62 0
-417 147 0
-417 -9 0
-417 -173 0
417 -14 -62 -147 9 173 0
-418 16 0
-418 61 0
-418 124 0
-418 60 0
-418 -139 0
418 -16 -61 -124 -60 139 0
-419 -43 0
-419 41 0
-419 -84 0
-419 88 0
-419 -13 0
419 43 -41 84 -88 13 0
-420 69 0
-420 -105 0
-420 -81 0
-420 120 0
-420 -135 0
420 -69 105 81 -120 135 0
416 417 418 419 420 0
-421 -19 0
-421 138 0
-421 63 0
-421 22 0
-421 -175 0
421 19 -138 -63 -22 175 0
-422 50 0
-422 175 0
-422 -139 0
-422 -25 0
-422 93 0
422 -50 -175 139 25 -93 0
-423 84 0
-423 18 0
-423 147 0
-423 8 0
-423 136 0
423 -84 -18 -147 -8 -136 0
-424 -98 0
-424 -167 0
-424 75 0
-424 131 0
-424 -23 0
424 98 167 -75 -131 23 0
-425 167 0
-425 -121 0
-425 134 0
-425 -79 0
-425 -1 0
425 -167 121 -134 79 1 0
421 422 423 424 425 0
-426 -50 0
-426 160 0
-426 52 0
-426 -41 0
-426 -146 0
426 50 -160 -52 41 146 0
-427 184 0
-427 139 0
-427 -147 0
-427 159 0
-427 -61 0
427 -184 -139 147 -159 61 0
-428 -31 0
-428 139 0
-428 14 0
-428 -159 0
-428 36 0
428 31 -139 -14 159 -36 0
-429 145 0
-429 58 0
-429 68 0
-429 104 0
-429 -9 0
429 -145 -58 -68 -104 9 0
-430 -16 0
-430 -165 0
-430 -33 0
-430 51 0
-430 93 0
430 16 165 33 -51 -93 0
426 427 428 429 430 0
